WARNING: for repeatability, setting FPU to use double precision
============================[ Problem Statistics ]=============================
|                                                                             |
|  Number of variables:      14140522                                         |
|  Number of clauses:        56857195                                         |
|  Parse time:                  13.37 s                                       |
|                                                                             |
c ============================[ Search Statistics ]==============================
c | Conflicts |          ORIGINAL         |          LEARNT          | Progress |
c |           |    Vars  Clauses Literals |    Limit  Clauses Lit/Cl |          |
c ===============================================================================
c Switched to VSIDS.
c Switched to LRB.
c Switched to VSIDS.
c Switched to LRB.
c Switched to VSIDS.
c Switched to LRB.
c Switched to VSIDS.
c Switched to LRB.
c Switched to VSIDS.
c Switched to LRB.
c Switched to VSIDS.
c Switched to LRB.
c Switched to VSIDS.
c Switched to LRB.
c Switched to VSIDS.
c Switched to LRB.
c Switched to VSIDS.
c Switched to LRB.
c ===============================================================================
restarts                  : 114
conflicts                 : 30227          (9 /sec)
decisions                 : 14893202       (0.00 % random) (4638 /sec)
propagations              : 4609394864     (1435421 /sec)
conflict literals         : 11497071       (7.77 % deleted)

conflicts w/ DIP found    : 28159          (93.16 % of conflicts)
conflicts w/ dangerous DIP: 0              (0.00 % of conflicts)
conflicts w/ DIP-learning : 2              (0.01 % of conflicts)
decisions on ext vars     : 0              (0.00 % of decisions)
total ext vars            : 2           
tried delete ext vars     : 1           
deleted ext vars          : 1           
max ext vars              : 1           

Memory used               : 7150.00 MB
CPU time                  : 3211.18 s
DIP computation time      : 0.539843 s (0.02 % of total time)
ER_sel time               : 0.069333 s
ER_add time               : 0.000278 s
ER_delC time              : 0 s
ER_delV time              : 0.07403 s
ER_sub time               : 0.206124 s
ER_stat time              : 0 s

INDETERMINATE
